MARKOV
225
 2 2 2 2 2 2 2 2 2 2 2 2 2 2 2 2 2 2 2 2 2 2 2 2 2 2 2 2 2 2 2 2 2 2 2 2 2 2 2 2 2 2 2 2 2 2 2 2 2 2 2 2 2 2 2 2 2 2 2 2 2 2 2 2 2 2 2 2 2 2 2 2 2 2 2 2 2 2 2 2 2 2 2 2 2 2 2 2 2 2 2 2 2 2 2 2 2 2 2 2 2 2 2 2 2 2 2 2 2 2 2 2 2 2 2 2 2 2 2 2 2 2 2 2 2 2 2 2 2 2 2 2 2 2 2 2 2 2 2 2 2 2 2 2 2 2 2 2 2 2 2 2 2 2 2 2 2 2 2 2 2 2 2 2 2 2 2 2 2 2 2 2 2 2 2 2 2 2 2 2 2 2 2 2 2 2 2 2 2 2 2 2 2 2 2 2 2 2 2 2 2 2 2 2 2 2 2 2 2 2 2 2 2 2 2 2 2 2 2 2 2 2 2 2 2
833
1	0 
1	1 
1	2 
1	3 
1	4 
1	5 
1	6 
1	7 
1	8 
1	9 
1	10 
1	11 
1	12 
1	13 
1	14 
1	15 
1	16 
1	17 
1	18 
1	19 
1	20 
1	21 
1	22 
1	23 
1	24 
1	25 
1	26 
1	27 
1	28 
1	29 
1	30 
1	31 
1	32 
1	33 
1	34 
1	35 
1	36 
1	37 
1	38 
1	39 
1	40 
1	41 
1	42 
1	43 
1	44 
1	45 
1	46 
1	47 
1	48 
1	49 
1	50 
1	51 
1	52 
1	53 
1	54 
1	55 
1	56 
1	57 
1	58 
1	59 
1	60 
1	61 
1	62 
1	63 
1	64 
1	65 
1	66 
1	67 
1	68 
1	69 
1	70 
1	71 
1	72 
1	73 
1	74 
1	75 
1	76 
1	77 
1	78 
1	79 
1	80 
1	81 
1	82 
1	83 
1	84 
1	85 
1	86 
1	87 
1	88 
1	89 
1	90 
1	91 
1	92 
1	93 
1	94 
1	95 
1	96 
1	97 
1	98 
1	99 
1	100 
1	101 
1	102 
1	103 
1	104 
1	105 
1	106 
1	107 
1	108 
1	109 
1	110 
1	111 
1	112 
1	113 
1	114 
1	115 
1	116 
1	117 
1	118 
1	119 
1	120 
1	121 
1	122 
1	123 
1	124 
1	125 
1	126 
1	127 
1	128 
1	129 
1	130 
1	131 
1	132 
1	133 
1	134 
1	135 
1	136 
1	137 
1	138 
1	139 
1	140 
1	141 
1	142 
1	143 
1	144 
1	145 
1	146 
1	147 
1	148 
1	149 
1	150 
1	151 
1	152 
1	153 
1	154 
1	155 
1	156 
1	157 
1	158 
1	159 
1	160 
1	161 
1	162 
1	163 
1	164 
1	165 
1	166 
1	167 
1	168 
1	169 
1	170 
1	171 
1	172 
1	173 
1	174 
1	175 
1	176 
1	177 
1	178 
1	179 
1	180 
1	181 
1	182 
1	183 
1	184 
1	185 
1	186 
1	187 
1	188 
1	189 
1	190 
1	191 
1	192 
1	193 
1	194 
1	195 
1	196 
1	197 
1	198 
1	199 
1	200 
1	201 
1	202 
1	203 
1	204 
1	205 
1	206 
1	207 
1	208 
1	209 
1	210 
1	211 
1	212 
1	213 
1	214 
1	215 
1	216 
1	217 
1	218 
1	219 
1	220 
1	221 
1	222 
1	223 
1	224 
2	1 2 
2	1 99 
2	1 100 
2	1 124 
2	2 3 
2	2 123 
2	2 124 
2	3 123 
2	4 6 
2	4 7 
2	4 8 
2	4 9 
2	4 84 
2	4 85 
2	4 88 
2	5 6 
2	5 7 
2	5 91 
2	5 126 
2	5 127 
2	6 7 
2	6 84 
2	6 92 
2	7 8 
2	7 126 
2	7 128 
2	8 9 
2	8 128 
2	9 88 
2	10 11 
2	10 13 
2	10 21 
2	10 23 
2	10 48 
2	10 133 
2	10 212 
2	10 213 
2	11 13 
2	11 15 
2	11 116 
2	11 211 
2	11 212 
2	12 13 
2	12 15 
2	12 16 
2	12 45 
2	12 48 
2	12 49 
2	13 15 
2	13 48 
2	14 16 
2	14 49 
2	14 53 
2	14 115 
2	15 16 
2	15 116 
2	16 49 
2	16 115 
2	16 116 
2	17 18 
2	17 19 
2	17 20 
2	17 21 
2	18 19 
2	18 20 
2	18 22 
2	19 21 
2	19 22 
2	19 23 
2	19 117 
2	19 119 
2	20 21 
2	20 22 
2	20 47 
2	20 48 
2	20 60 
2	20 172 
2	20 173 
2	21 23 
2	21 48 
2	22 60 
2	22 62 
2	22 98 
2	22 119 
2	22 121 
2	23 117 
2	23 131 
2	23 133 
2	24 25 
2	24 27 
2	24 28 
2	24 101 
2	24 103 
2	24 181 
2	25 26 
2	25 28 
2	25 68 
2	25 100 
2	25 101 
2	25 208 
2	25 210 
2	26 66 
2	26 68 
2	26 100 
2	26 124 
2	27 28 
2	27 141 
2	27 144 
2	27 181 
2	27 209 
2	28 209 
2	28 210 
2	29 33 
2	29 151 
2	29 153 
2	29 186 
2	30 31 
2	30 32 
2	30 147 
2	30 150 
2	30 154 
2	30 185 
2	30 187 
2	31 71 
2	31 150 
2	31 159 
2	31 187 
2	32 33 
2	32 154 
2	32 184 
2	32 185 
2	33 153 
2	33 154 
2	33 184 
2	33 186 
2	34 35 
2	34 36 
2	34 37 
2	34 38 
2	35 36 
2	35 194 
2	36 38 
2	36 193 
2	36 194 
2	37 38 
2	37 113 
2	37 114 
2	37 193 
2	38 193 
2	39 40 
2	39 41 
2	39 44 
2	39 64 
2	39 67 
2	40 41 
2	40 67 
2	40 108 
2	41 42 
2	41 44 
2	41 108 
2	41 109 
2	42 43 
2	42 44 
2	42 106 
2	42 109 
2	42 167 
2	42 220 
2	43 44 
2	43 205 
2	43 220 
2	43 223 
2	44 64 
2	44 206 
2	45 46 
2	45 47 
2	45 48 
2	45 49 
2	46 47 
2	46 49 
2	46 50 
2	46 51 
2	46 53 
2	47 48 
2	47 51 
2	49 53 
2	50 51 
2	50 52 
2	50 53 
2	50 177 
2	50 178 
2	51 173 
2	51 177 
2	52 53 
2	52 178 
2	54 55 
2	54 141 
2	54 145 
2	54 182 
2	55 145 
2	55 195 
2	56 57 
2	56 58 
2	56 200 
2	56 203 
2	56 207 
2	56 222 
2	57 58 
2	57 59 
2	57 70 
2	57 81 
2	57 200 
2	58 59 
2	58 143 
2	58 144 
2	58 207 
2	58 209 
2	59 81 
2	59 83 
2	59 142 
2	59 143 
2	60 62 
2	60 63 
2	60 172 
2	61 62 
2	61 63 
2	61 95 
2	61 97 
2	62 63 
2	62 95 
2	62 98 
2	63 172 
2	63 174 
2	64 65 
2	64 67 
2	64 206 
2	65 66 
2	65 67 
2	65 68 
2	65 69 
2	65 206 
2	66 68 
2	66 69 
2	66 124 
2	66 125 
2	67 69 
2	68 206 
2	68 208 
2	69 125 
2	70 72 
2	70 73 
2	70 81 
2	70 200 
2	70 201 
2	71 72 
2	71 73 
2	71 146 
2	71 150 
2	71 159 
2	72 73 
2	72 146 
2	72 201 
2	72 202 
2	73 81 
2	73 156 
2	73 159 
2	74 76 
2	74 77 
2	74 78 
2	74 110 
2	75 77 
2	75 78 
2	75 79 
2	75 161 
2	75 162 
2	75 191 
2	76 78 
2	76 110 
2	76 112 
2	76 166 
2	77 78 
2	77 79 
2	78 162 
2	78 169 
2	79 189 
2	79 191 
2	80 82 
2	80 83 
2	80 127 
2	80 129 
2	80 197 
2	80 198 
2	81 82 
2	81 83 
2	81 156 
2	82 83 
2	82 129 
2	82 156 
2	82 157 
2	83 142 
2	83 197 
2	84 85 
2	84 86 
2	84 89 
2	84 92 
2	85 88 
2	85 89 
2	85 217 
2	86 87 
2	86 89 
2	86 92 
2	86 135 
2	86 137 
2	87 92 
2	87 93 
2	87 130 
2	87 133 
2	87 137 
2	87 213 
2	88 214 
2	88 217 
2	89 135 
2	89 139 
2	89 217 
2	90 91 
2	90 93 
2	90 129 
2	90 132 
2	90 157 
2	91 92 
2	91 93 
2	91 127 
2	91 129 
2	92 93 
2	93 130 
2	93 132 
2	94 95 
2	94 96 
2	94 98 
2	94 118 
2	94 121 
2	94 184 
2	94 185 
2	95 96 
2	95 97 
2	95 98 
2	96 97 
2	96 184 
2	96 186 
2	98 121 
2	99 100 
2	99 101 
2	99 102 
2	100 101 
2	100 124 
2	101 102 
2	101 103 
2	102 103 
2	103 181 
2	103 183 
2	104 105 
2	104 106 
2	104 107 
2	104 108 
2	104 109 
2	105 107 
2	105 190 
2	106 107 
2	106 109 
2	106 160 
2	106 164 
2	106 167 
2	107 161 
2	107 164 
2	107 190 
2	108 109 
2	110 111 
2	110 112 
2	111 112 
2	111 152 
2	111 155 
2	112 149 
2	112 155 
2	112 166 
2	112 170 
2	113 114 
2	113 115 
2	113 116 
2	114 116 
2	114 136 
2	114 193 
2	114 211 
2	114 215 
2	115 116 
2	116 211 
2	117 119 
2	117 120 
2	117 122 
2	117 131 
2	118 120 
2	118 121 
2	118 185 
2	119 120 
2	119 121 
2	120 121 
2	120 122 
2	120 187 
2	122 131 
2	122 134 
2	122 158 
2	122 187 
2	123 124 
2	123 125 
2	124 125 
2	126 127 
2	126 128 
2	126 196 
2	126 198 
2	126 199 
2	127 129 
2	127 198 
2	128 199 
2	129 157 
2	130 131 
2	130 132 
2	130 133 
2	131 132 
2	131 133 
2	131 134 
2	132 134 
2	132 157 
2	133 213 
2	134 157 
2	134 158 
2	135 136 
2	135 137 
2	135 138 
2	135 139 
2	135 140 
2	136 138 
2	136 140 
2	136 211 
2	136 215 
2	137 138 
2	137 212 
2	137 213 
2	138 211 
2	138 212 
2	139 140 
2	139 216 
2	139 217 
2	140 215 
2	140 216 
2	141 143 
2	141 144 
2	141 145 
2	141 181 
2	141 182 
2	142 143 
2	142 145 
2	142 197 
2	143 144 
2	143 145 
2	144 209 
2	145 195 
2	145 196 
2	145 197 
2	146 147 
2	146 148 
2	146 150 
2	146 202 
2	146 204 
2	147 148 
2	147 149 
2	147 150 
2	147 154 
2	147 155 
2	148 149 
2	148 170 
2	148 204 
2	149 155 
2	149 170 
2	151 152 
2	151 153 
2	152 153 
2	152 155 
2	153 154 
2	153 155 
2	154 155 
2	156 157 
2	156 158 
2	156 159 
2	157 158 
2	158 159 
2	158 187 
2	159 187 
2	160 163 
2	160 164 
2	160 167 
2	161 162 
2	161 164 
2	161 190 
2	161 191 
2	162 163 
2	162 164 
2	162 169 
2	163 164 
2	163 165 
2	163 167 
2	163 169 
2	165 167 
2	165 168 
2	165 169 
2	165 220 
2	165 221 
2	166 169 
2	166 170 
2	167 220 
2	168 169 
2	168 170 
2	168 204 
2	168 221 
2	169 170 
2	170 204 
2	171 172 
2	171 174 
2	171 175 
2	171 179 
2	171 180 
2	172 173 
2	172 174 
2	172 175 
2	173 175 
2	173 177 
2	175 177 
2	175 180 
2	176 178 
2	176 179 
2	176 180 
2	177 178 
2	177 180 
2	178 180 
2	179 180 
2	181 182 
2	181 183 
2	182 183 
2	184 185 
2	184 186 
2	185 187 
2	188 189 
2	188 191 
2	188 192 
2	189 191 
2	190 191 
2	190 192 
2	191 192 
2	193 194 
2	193 215 
2	193 216 
2	194 216 
2	194 218 
2	195 196 
2	195 199 
2	196 197 
2	196 198 
2	196 199 
2	197 198 
2	200 201 
2	200 203 
2	201 202 
2	201 203 
2	202 203 
2	202 204 
2	202 221 
2	202 224 
2	203 222 
2	203 224 
2	204 221 
2	205 206 
2	205 207 
2	205 208 
2	205 210 
2	205 219 
2	205 223 
2	206 208 
2	207 209 
2	207 210 
2	207 219 
2	207 222 
2	208 210 
2	209 210 
2	211 212 
2	212 213 
2	214 217 
2	214 218 
2	215 216 
2	216 217 
2	216 218 
2	217 218 
2	219 222 
2	219 223 
2	220 221 
2	220 223 
2	220 224 
2	221 224 
2	222 223 
2	222 224 
2	223 224 
0	

2
 0.252912 1
2
 1 0.408924
2
 1 0.358205
2
 1 0.278301
2
 1 0.479509
2
 0.204968 1
2
 1 0.599203
2
 0.295579 1
2
 1 0.900592
2
 1 0.231313
2
 1 0.428751
2
 0.55299 1
2
 0.654176 1
2
 1 0.54606
2
 1 0.562032
2
 1 0.387656
2
 1 0.311488
2
 1 0.74507
2
 1 0.339252
2
 1 0.613023
2
 1 0.526612
2
 1 0.55513
2
 1 0.825309
2
 0.629489 1
2
 1 0.489534
2
 1 0.858928
2
 1 0.530965
2
 1 0.627354
2
 0.419895 1
2
 1 0.360121
2
 1 0.392517
2
 1 0.551268
2
 1 0.512471
2
 1 0.205549
2
 1 0.205565
2
 1 0.0489927
2
 1 0.239474
2
 1 0.352692
2
 1 0.165861
2
 1 0.558953
2
 1 0.258232
2
 1 0.97547
2
 0.891645 1
2
 0.769152 1
2
 1 0.67945
2
 1 0.2887
2
 1 0.233709
2
 1 0.395985
2
 1 0.735725
2
 1 0.496321
2
 1 0.207037
2
 1 0.305046
2
 1 0.295879
2
 1 0.21029
2
 1 0.828874
2
 1 0.152837
2
 1 0.439441
2
 0.855788 1
2
 1 0.42517
2
 1 0.769032
2
 1 0.194435
2
 1 0.0611432
2
 1 0.702399
2
 1 0.199804
2
 1 0.482341
2
 1 0.435584
2
 1 0.615732
2
 1 0.297393
2
 1 0.496003
2
 1 0.600788
2
 1 0.415149
2
 1 0.344699
2
 0.637903 1
2
 1 0.391698
2
 0.474407 1
2
 1 0.462345
2
 1 0.877247
2
 1 0.543474
2
 1 0.511003
2
 1 0.299103
2
 1 0.366256
2
 1 0.591863
2
 1 0.437136
2
 1 0.212375
2
 1 0.635113
2
 1 0.568808
2
 0.854179 1
2
 0.877544 1
2
 1 0.275142
2
 1 0.189119
2
 0.302141 1
2
 0.361637 1
2
 0.892479 1
2
 0.547698 1
2
 0.598853 1
2
 1 0.306895
2
 0.747418 1
2
 1 0.542816
2
 1 0.588522
2
 1 0.274179
2
 1 0.1932
2
 1 0.116067
2
 1 0.229709
2
 1 0.541593
2
 1 0.552729
2
 1 0.458914
2
 1 0.280919
2
 1 0.194006
2
 1 0.36544
2
 1 0.509658
2
 0.463025 1
2
 1 0.0959106
2
 1 0.345365
2
 1 0.235806
2
 1 0.630093
2
 1 0.507143
2
 1 0.384914
2
 0.777676 1
2
 0.479233 1
2
 1 0.598271
2
 0.82441 1
2
 1 0.586156
2
 0.887243 1
2
 1 0.131032
2
 1 0.198417
2
 1 0.736383
2
 0.261878 1
2
 0.227819 1
2
 0.48206 1
2
 0.292773 1
2
 0.502492 1
2
 1 0.945859
2
 0.360949 1
2
 1 0.463495
2
 0.311077 1
2
 1 0.704765
2
 1 0.956226
2
 1 0.157633
2
 1 0.66522
2
 1 0.140799
2
 1 0.297997
2
 1 0.299768
2
 1 0.601807
2
 0.171765 1
2
 1 0.421359
2
 1 0.455301
2
 0.324463 1
2
 1 0.957542
2
 1 0.899966
2
 0.275489 1
2
 1 0.294452
2
 1 0.0921159
2
 1 0.34019
2
 1 0.157954
2
 1 0.18847
2
 1 0.9118
2
 1 0.817332
2
 0.292872 1
2
 0.177401 1
2
 1 0.436282
2
 1 0.559691
2
 1 0.73141
2
 1 0.771048
2
 1 0.499773
2
 1 0.259216
2
 1 0.521015
2
 0.908811 1
2
 0.288057 1
2
 0.796312 1
2
 0.882038 1
2
 1 0.744187
2
 1 0.131146
2
 1 0.145537
2
 1 0.311936
2
 1 0.254339
2
 1 0.150839
2
 1 0.205178
2
 1 0.152087
2
 1 0.171131
2
 1 0.0886821
2
 1 0.151226
2
 1 0.0627321
2
 1 0.0512391
2
 1 0.133302
2
 0.446374 1
2
 0.545259 1
2
 0.766997 1
2
 0.329867 1
2
 1 0.204252
2
 1 0.293883
2
 1 0.269811
2
 1 0.523108
2
 1 0.713576
2
 1 0.66786
2
 1 0.119442
2
 1 0.0372803
2
 1 0.101588
2
 1 0.324506
2
 1 0.251677
2
 1 0.117042
2
 0.872711 1
2
 1 0.649967
2
 1 0.189477
2
 1 0.384649
2
 1 0.4556
2
 0.925274 1
2
 1 0.947925
2
 0.536458 1
2
 1 0.353098
2
 0.771148 1
2
 1 0.546972
2
 0.534081 1
2
 1 0.662297
2
 1 0.312074
2
 1 0.0874652
2
 1 0.163726
2
 1 0.180929
2
 1 0.138599
2
 1 0.0453098
2
 0.943106 1
2
 0.503078 1
2
 0.938048 1
2
 0.300508 1
2
 0.569042 1
2
 0.513601 1
4
 1 0.28259 0.28259 0.978
4
 1 0.280614 0.280614 0.983131
4
 1 0.28363 0.28363 0.98154
4
 1 0.285334 0.285334 0.977896
4
 1 0.284405 0.284405 0.972978
4
 1 0.286821 0.286821 0.972293
4
 1 0.286337 0.286337 0.975341
4
 1 0.287653 0.287653 0.969835
4
 0.959254 0.25566 0.25566 1
4
 0.960667 0.254239 0.254239 1
4
 0.958852 0.250844 0.250844 1
4
 0.955632 0.248876 0.248876 1
4
 0.956229 0.253522 0.253522 1
4
 0.953852 0.250288 0.250288 1
4
 0.953117 0.247594 0.247594 1
4
 0.963948 0.260941 0.260941 1
4
 0.965368 0.259491 0.259491 1
4
 0.968222 0.265912 0.265912 1
4
 0.968586 0.262045 0.262045 1
4
 0.970384 0.266102 0.266102 1
4
 0.962486 0.257681 0.257681 1
4
 0.958039 0.256954 0.256954 1
4
 0.962449 0.262216 0.262216 1
4
 0.962083 0.252827 0.252827 1
4
 0.967117 0.258771 0.258771 1
4
 0.965225 0.254892 0.254892 1
4
 0.95704 0.247493 0.247493 1
4
 0.963401 0.251487 0.251487 1
4
 0.951316 0.244287 0.244287 1
4
 0.951613 0.267672 0.267672 1
4
 0.954243 0.271439 0.271439 1
4
 0.958716 0.277191 0.277191 1
4
 0.960597 0.277074 0.277074 1
4
 0.956614 0.276462 0.276462 1
4
 0.958996 0.272968 0.272968 1
4
 0.952216 0.266997 0.266997 1
4
 0.955782 0.269343 0.269343 1
4
 0.94927 0.266665 0.266665 1
4
 0.945603 0.263467 0.263467 1
4
 0.942503 0.258972 0.258972 1
4
 0.944079 0.258817 0.258817 1
4
 0.947253 0.262301 0.262301 1
4
 0.949949 0.270343 0.270343 1
4
 0.94628 0.267101 0.267101 1
4
 0.943455 0.265238 0.265238 1
4
 0.949129 0.272924 0.272924 1
4
 0.95231 0.275346 0.275346 1
4
 0.945189 0.269604 0.269604 1
4
 0.948217 0.267175 0.267175 1
4
 0.954258 0.275422 0.275422 1
4
 0.937101 0.260162 0.260162 1
4
 0.938824 0.264444 0.264444 1
4
 0.937336 0.264787 0.264787 1
4
 0.933724 0.256169 0.256169 1
4
 0.941734 0.26213 0.26213 1
4
 0.941457 0.259468 0.259468 1
4
 0.940649 0.264586 0.264586 1
4
 0.935539 0.256307 0.256307 1
4
 0.938646 0.257658 0.257658 1
4
 0.967805 0.29379 0.29379 1
4
 0.967836 0.2903 0.2903 1
4
 0.965421 0.292685 0.292685 1
4
 0.963656 0.286368 0.286368 1
4
 0.96916 0.293281 0.293281 1
4
 0.966742 0.29569 0.29569 1
4
 0.971597 0.299778 0.299778 1
4
 0.965005 0.285872 0.285872 1
4
 0.971628 0.296217 0.296217 1
4
 0.966899 0.285751 0.285751 1
4
 0.971356 0.290004 0.290004 1
4
 0.972468 0.293416 0.293416 1
4
 0.962598 0.28822 0.28822 1
4
 0.969204 0.298651 0.298651 1
4
 0.960608 0.290007 0.290007 1
4
 0.960488 0.287463 0.287463 1
4
 0.967877 0.300241 0.300241 1
4
 0.965214 0.299059 0.299059 1
4
 0.963454 0.295554 0.295554 1
4
 0.962723 0.28188 0.28188 1
4
 0.958731 0.281258 0.281258 1
4
 0.972738 0.304392 0.304392 1
4
 0.975715 0.307039 0.307039 1
4
 0.977117 0.305919 0.305919 1
4
 0.974913 0.299916 0.299916 1
4
 0.97716 0.303659 0.303659 1
4
 0.969058 0.285955 0.285955 1
4
 0.967309 0.282333 0.282333 1
4
 0.963004 0.277586 0.277586 1
4
 1 0.28741 0.28741 0.988008
4
 1 0.284797 0.284797 0.994389
4
 1 0.286925 0.286925 0.991104
4
 1 0.283024 0.283024 0.990851
4
 1 0.280198 0.280198 0.994945
4
 1 0.281211 0.281211 0.996729
4
 1 0.291118 0.291118 0.981171
4
 1 0.290175 0.290175 0.98686
4
 1 0.294107 0.294107 0.979198
4
 1 0.28816 0.28816 0.983147
4
 1 0.286231 0.286231 0.986608
4
 1 0.294989 0.294989 0.981036
4
 1 0.293629 0.293629 0.984057
4
 1 0.293937 0.293937 0.97451
4
 1 0.294564 0.294564 0.976604
4
 1 0.288608 0.288608 0.980542
4
 1 0.290341 0.290341 0.976902
4
 1 0.287537 0.287537 0.993234
4
 0.99846 0.281216 0.281216 1
4
 1 0.285455 0.285455 0.998632
4
 1 0.281811 0.281811 0.998871
4
 1 0.289221 0.289221 0.994104
4
 1 0.291382 0.291382 0.99082
4
 1 0.293133 0.293133 0.987141
4
 1 0.331236 0.331236 0.996813
4
 1 0.336968 0.336968 0.991893
4
 1 0.33384 0.33384 0.992861
4
 1 0.334323 0.334323 0.997367
4
 0.996376 0.312297 0.312297 1
4
 0.998731 0.318465 0.318465 1
4
 1 0.319105 0.319105 0.99736
4
 1 0.315474 0.315474 0.999538
4
 1 0.321493 0.321493 0.997404
4
 0.995329 0.315141 0.315141 1
4
 0.993856 0.310608 0.310608 1
4
 0.995867 0.307887 0.307887 1
4
 0.998349 0.311866 0.311866 1
4
 0.992577 0.304595 0.304595 1
4
 0.991756 0.306913 0.306913 1
4
 1 0.32451 0.32451 0.999777
4
 1 0.323863 0.323863 0.997158
4
 0.997255 0.322009 0.322009 1
4
 0.995574 0.317542 0.317542 1
4
 1 0.330411 0.330411 0.994573
4
 1 0.32718 0.32718 0.995916
4
 0.998499 0.325713 0.325713 1
4
 1 0.330888 0.330888 0.999087
4
 0.92115 0.228705 0.228705 1
4
 0.924214 0.232229 0.232229 1
4
 0.924402 0.235739 0.235739 1
4
 0.925099 0.234858 0.234858 1
4
 0.923269 0.229248 0.229248 1
4
 0.924061 0.228332 0.228332 1
4
 0.927227 0.235416 0.235416 1
4
 0.929404 0.236593 0.236593 1
4
 0.927134 0.231849 0.231849 1
4
 0.927415 0.238975 0.238975 1
4
 0.928202 0.243076 0.243076 1
4
 0.930763 0.244036 0.244036 1
4
 0.929592 0.24017 0.24017 1
4
 0.930294 0.239272 0.239272 1
4
 1 0.318348 0.318348 0.958178
4
 1 0.318272 0.318272 0.961575
4
 1 0.314987 0.314987 0.964709
4
 1 0.31316 0.31316 0.963128
4
 1 0.313226 0.313226 0.96046
4
 1 0.320453 0.320453 0.958479
4
 1 0.315373 0.315373 0.957368
4
 1 0.324047 0.324047 0.954098
4
 1 0.320784 0.320784 0.964206
4
 1 0.31707 0.31707 0.965013
4
 1 0.323971 0.323971 0.957481
4
 1 0.323748 0.323748 0.959764
4
 1 0.31698 0.31698 0.969919
4
 1 0.317472 0.317472 0.967349
4
 1 0.32582 0.32582 0.962733
4
 1 0.324158 0.324158 0.962088
4
 1 0.323072 0.323072 0.967387
4
 1 0.32029 0.32029 0.970014
4
 1 0.313311 0.313311 0.97073
4
 1 0.308843 0.308843 0.976063
4
 1 0.316092 0.316092 0.973404
4
 1 0.312339 0.312339 0.975894
4
 1 0.311978 0.311978 0.966571
4
 1 0.31008 0.31008 0.969892
4
 0.949099 0.276206 0.276206 1
4
 0.953554 0.280512 0.280512 1
4
 0.953435 0.278052 0.278052 1
4
 0.946306 0.272253 0.272253 1
4
 0.952399 0.281122 0.281122 1
4
 0.945159 0.272845 0.272845 1
4
 0.948085 0.278988 0.278988 1
4
 0.951325 0.28193 0.28193 1
4
 0.943661 0.273199 0.273199 1
4
 0.95675 0.283001 0.283001 1
4
 0.955791 0.286327 0.286327 1
4
 0.940885 0.26929 0.26929 1
4
 0.951461 0.284153 0.284153 1
4
 0.945549 0.279616 0.279616 1
4
 0.943797 0.275353 0.275353 1
4
 0.951082 0.285743 0.285743 1
4
 0.947499 0.283798 0.283798 1
4
 0.958622 0.291804 0.291804 1
4
 0.954332 0.288756 0.288756 1
4
 0.941138 0.273814 0.273814 1
4
 0.94483 0.282212 0.282212 1
4
 0.985048 0.26518 0.26518 1
4
 0.990471 0.271723 0.271723 1
4
 0.986711 0.26891 0.26891 1
4
 0.989643 0.268353 0.268353 1
4
 0.984269 0.266686 0.266686 1
4
 0.980209 0.261747 0.261747 1
4
 1 0.295688 0.295688 0.998522
4
 1 0.294227 0.294227 0.996615
4
 1 0.299057 0.299057 0.996059
4
 1 0.301586 0.301586 0.992786
4
 1 0.297967 0.297967 0.991707
4
 1 0.301011 0.301011 0.991231
4
 0.999671 0.292374 0.292374 1
4
 0.99557 0.289574 0.289574 1
4
 0.997159 0.295059 0.295059 1
4
 0.993854 0.290582 0.290582 1
4
 1 0.297271 0.297271 0.99977
4
 0.997475 0.288695 0.288695 1
4
 0.997453 0.286088 0.286088 1
4
 1 0.288252 0.288252 0.999579
4
 1 0.294725 0.294725 0.993501
4
 1 0.292056 0.292056 0.995047
4
 0.99167 0.286926 0.286926 1
4
 0.989796 0.283094 0.283094 1
4
 0.990765 0.281618 0.281618 1
4
 0.99336 0.283348 0.283348 1
4
 0.97438 0.308674 0.308674 1
4
 0.973064 0.31002 0.31002 1
4
 0.968734 0.304808 0.304808 1
4
 0.979597 0.315546 0.315546 1
4
 0.978274 0.316922 0.316922 1
4
 0.983348 0.318541 0.318541 1
4
 0.985228 0.322544 0.322544 1
4
 0.976042 0.312716 0.312716 1
4
 0.981105 0.314313 0.314313 1
4
 0.978767 0.310222 0.310222 1
4
 0.970386 0.3088 0.3088 1
4
 0.971796 0.312188 0.312188 1
4
 1 0.306836 0.306836 0.966272
4
 1 0.310234 0.310234 0.962314
4
 1 0.308281 0.308281 0.968302
4
 1 0.299908 0.299908 0.969011
4
 1 0.3069 0.3069 0.963595
4
 1 0.300548 0.300548 0.971093
4
 1 0.302782 0.302782 0.965385
4
 1 0.304969 0.304969 0.969592
4
 1 0.296954 0.296954 0.97255
4
 1 0.299161 0.299161 0.966833
4
 1 0.292697 0.292697 0.972848
4
 1 0.295617 0.295617 0.968565
4
 1 0.306136 0.306136 0.96143
4
 1 0.301965 0.301965 0.973134
4
 1 0.298481 0.298481 0.97647
4
 1 0.298449 0.298449 0.96494
4
 0.999136 0.30228 0.30228 1
4
 0.995266 0.297303 0.297303 1
4
 0.993254 0.292361 0.292361 1
4
 0.999626 0.299159 0.299159 1
4
 1 0.30215 0.30215 0.999212
4
 0.999592 0.307493 0.307493 1
4
 0.99572 0.30243 0.30243 1
4
 1 0.311428 0.311428 0.997958
4
 0.999952 0.311163 0.311163 1
4
 0.994171 0.303908 0.303908 1
4
 0.997841 0.302725 0.302725 1
4
 1 0.311069 0.311069 0.995836
4
 1 0.306867 0.306867 0.996633
4
 1 0.310103 0.310103 0.993683
4
 0.991966 0.292792 0.292792 1
4
 0.991045 0.295098 0.295098 1
4
 0.99243 0.299196 0.299196 1
4
 1 0.346341 0.346341 0.968179
4
 1 0.351175 0.351175 0.963249
4
 1 0.347306 0.347306 0.965451
4
 1 0.34772 0.34772 0.970014
4
 1 0.350628 0.350628 0.958619
4
 1 0.346765 0.346765 0.96081
4
 1 0.35239 0.35239 0.955043
4
 1 0.347378 0.347378 0.955611
4
 1 0.344668 0.344668 0.959414
4
 1 0.35061 0.35061 0.952942
4
 1 0.344035 0.344035 0.966853
4
 1 0.344445 0.344445 0.971423
4
 1 0.339483 0.339483 0.973955
4
 1 0.339678 0.339678 0.971357
4
 1 0.348836 0.348836 0.96193
4
 1 0.354494 0.354494 0.956156
4
 1 0.342906 0.342906 0.962728
4
 1 0.340735 0.340735 0.966217
4
 1 0.357796 0.357796 0.949567
4
 1 0.354476 0.354476 0.950494
4
 0.982335 0.279521 0.279521 1
4
 0.98348 0.278185 0.278185 1
4
 0.97734 0.272766 0.272766 1
4
 0.979338 0.277111 0.277111 1
4
 0.981456 0.274086 0.274086 1
4
 0.978992 0.272342 0.272342 1
4
 0.98694 0.285443 0.285443 1
4
 0.98809 0.28408 0.28408 1
4
 0.989041 0.290193 0.290193 1
4
 0.985075 0.281631 0.281631 1
4
 0.980926 0.280544 0.280544 1
4
 0.986023 0.287691 0.287691 1
4
 0.982416 0.284093 0.284093 1
4
 0.987188 0.278824 0.278824 1
4
 0.984193 0.276156 0.276156 1
4
 0.952644 0.251555 0.251555 1
4
 0.955754 0.257578 0.257578 1
4
 0.952746 0.254025 0.254025 1
4
 0.959414 0.260023 0.260023 1
4
 0.949544 0.245673 0.245673 1
4
 0.950378 0.250784 0.250784 1
4
 0.946446 0.245025 0.245025 1
4
 0.958059 0.263354 0.263354 1
4
 0.95348 0.256789 0.256789 1
4
 0.960153 0.262853 0.262853 1
4
 0.951728 0.256584 0.256584 1
4
 0.954324 0.260695 0.260695 1
4
 0.961727 0.265853 0.265853 1
4
 0.963368 0.269334 0.269334 1
4
 0.962804 0.270723 0.270723 1
4
 0.960514 0.269893 0.269893 1
4
 0.955889 0.263671 0.263671 1
4
 0.957295 0.266309 0.266309 1
4
 0.945582 0.240492 0.240492 1
4
 0.945717 0.242388 0.242388 1
4
 0.948733 0.253044 0.253044 1
4
 0.94686 0.24949 0.24949 1
4
 0.946548 0.247431 0.247431 1
4
 0.971365 0.272541 0.272541 1
4
 0.970117 0.274184 0.274184 1
4
 0.975524 0.277079 0.277079 1
4
 0.97369 0.278919 0.278919 1
4
 0.977006 0.280585 0.280585 1
4
 0.966716 0.267211 0.267211 1
4
 0.968365 0.27071 0.27071 1
4
 0.971776 0.26928 0.26928 1
4
 0.973763 0.27357 0.27357 1
4
 0.965474 0.268822 0.268822 1
4
 0.966555 0.273746 0.273746 1
4
 0.970683 0.277046 0.277046 1
4
 0.986711 0.316941 0.316941 1
4
 0.991056 0.321826 0.321826 1
4
 0.984359 0.312816 0.312816 1
4
 0.987617 0.313042 0.313042 1
4
 0.984402 0.310505 0.310505 1
4
 0.992043 0.319842 0.319842 1
4
 0.990372 0.315405 0.315405 1
4
 0.989199 0.322187 0.322187 1
4
 0.986744 0.321284 0.321284 1
4
 0.982514 0.313167 0.313167 1
4
 0.99109 0.326236 0.326236 1
4
 0.994545 0.325136 0.325136 1
4
 0.99695 0.330604 0.330604 1
4
 0.980215 0.306808 0.306808 1
4
 1 0.282637 0.282637 0.984111
4
 1 0.280745 0.280745 0.987576
4
 1 0.278032 0.278032 0.989195
4
 1 0.283763 0.283763 0.985977
4
 1 0.287391 0.287391 0.97887
4
 1 0.279139 0.279139 0.99107
4
 1 0.279048 0.279048 0.993535
4
 1 0.276351 0.276351 0.995165
4
 1 0.277261 0.277261 0.999429
4
 0.999325 0.274265 0.274265 1
4
 1 0.339444 0.339444 0.948181
4
 1 0.332919 0.332919 0.954488
4
 1 0.337257 0.337257 0.951341
4
 1 0.331449 0.331449 0.951579
4
 1 0.331221 0.331221 0.953848
4
 1 0.341386 0.341386 0.949463
4
 1 0.346433 0.346433 0.94582
4
 1 0.334823 0.334823 0.955779
4
 1 0.328831 0.328831 0.958298
4
 1 0.330575 0.330575 0.960966
4
 1 0.334798 0.334798 0.957977
4
 1 0.327729 0.327729 0.963576
4
 1 0.342681 0.342681 0.953175
4
 1 0.339161 0.339161 0.954818
4
 1 0.3442 0.3442 0.948972
4
 1 0.327378 0.327378 0.955378
4
 1 0.343761 0.343761 0.976143
4
 1 0.340835 0.340835 0.975801
4
 1 0.338808 0.338808 0.978687
4
 1 0.341024 0.341024 0.981247
4
 1 0.336494 0.336494 0.982601
4
 1 0.3314 0.3314 0.981663
4
 1 0.333629 0.333629 0.982256
4
 1 0.336117 0.336117 0.975734
4
 1 0.332368 0.332368 0.978431
4
 0.932255 0.247296 0.247296 1
4
 0.930928 0.24933 0.24933 1
4
 0.93402 0.250644 0.250644 1
4
 0.936597 0.251635 0.251635 1
4
 0.93717 0.248733 0.248733 1
4
 0.933652 0.24434 0.24434 1
4
 0.938163 0.251484 0.251484 1
4
 0.934981 0.246139 0.246139 1
4
 0.935264 0.253704 0.253704 1
4
 0.939939 0.254889 0.254889 1
4
 0.97464 0.293625 0.293625 1
4
 0.978408 0.295844 0.295844 1
4
 0.976906 0.292429 0.292429 1
4
 0.971767 0.286535 0.286535 1
4
 0.984992 0.305536 0.305536 1
4
 0.98346 0.307029 0.307029 1
4
 0.989424 0.311874 0.311874 1
4
 0.979528 0.299325 0.299325 1
4
 0.978004 0.300788 0.300788 1
4
 0.981785 0.303061 0.303061 1
4
 0.981805 0.298105 0.298105 1
4
 0.986277 0.303414 0.303414 1
4
 0.975142 0.288725 0.288725 1
4
 0.979525 0.291772 0.291772 1
4
 0.982606 0.294514 0.294514 1
4
 0.984763 0.299911 0.299911 1
4
 1 0.289606 0.289606 0.972189
4
 1 0.292495 0.292495 0.967909
4
 1 0.292001 0.292001 0.970943
4
 0.972142 0.265364 0.265364 1
4
 0.968442 0.2574 0.2574 1
4
 0.973927 0.262925 0.262925 1
4
 0.973785 0.264951 0.264951 1
4
 0.971161 0.259095 0.259095 1
4
 0.975938 0.273765 0.273765 1
4
 0.975593 0.269053 0.269053 1
4
 0.969262 0.255211 0.255211 1
4
 0.979418 0.281644 0.281644 1
4
 0.967999 0.279005 0.279005 1
4
 0.970115 0.278474 0.278474 1
4
 0.963691 0.274314 0.274314 1
4
 0.972133 0.282367 0.282367 1
4
 0.965696 0.278149 0.278149 1
4
 0.974373 0.285891 0.285891 1
4
 0.976503 0.285347 0.285347 1
4
 0.977576 0.283514 0.283514 1
4
 0.958177 0.269842 0.269842 1
4
 0.979829 0.287052 0.287052 1
4
 0.981832 0.291624 0.291624 1
4
 0.943246 0.251012 0.251012 1
4
 0.949572 0.256894 0.256894 1
4
 0.946595 0.254501 0.254501 1
4
 0.945121 0.249291 0.249291 1
4
 0.943463 0.249266 0.249266 1
4
 0.942853 0.252658 0.252658 1
4
 0.939734 0.247461 0.247461 1
4
 0.940514 0.25195 0.25195 1
4
 0.937323 0.246595 0.246595 1
4
 0.949177 0.258579 0.258579 1
4
 0.950005 0.261324 0.261324 1
4
 0.953563 0.263621 0.263621 1
4
 0.943853 0.255453 0.255453 1
4
 0.947027 0.258891 0.258891 1
4
 0.941601 0.245765 0.245765 1
4
 0.939374 0.242334 0.242334 1
4
 0.942943 0.243761 0.243761 1
4
 0.937539 0.244881 0.244881 1
4
 0.937727 0.24231 0.24231 1
4
 0.993399 0.278447 0.278447 1
4
 0.996355 0.280672 0.280672 1
4
 0.989688 0.273267 0.273267 1
4
 0.996117 0.277023 0.277023 1
4
 0.992629 0.272701 0.272701 1
4
 0.990742 0.279074 0.279074 1
4
 0.987041 0.273882 0.273882 1
4
 0.985156 0.274716 0.274716 1
4
 0.996294 0.283032 0.283032 1
4
 0.989627 0.275565 0.275565 1
4
 1 0.289273 0.289273 0.996204
4
 0.981863 0.265429 0.265429 1
4
 0.98172 0.267474 0.267474 1
4
 0.984047 0.271261 0.271261 1
4
 1 0.318289 0.318289 0.993309
4
 1 0.318205 0.318205 0.99017
4
 1 0.314668 0.314668 0.995478
4
 1 0.313943 0.313943 0.991249
4
 1 0.31713 0.31713 0.98897
4
 1 0.321609 0.321609 0.990082
4
 1 0.324305 0.324305 0.989098
4
 1 0.318034 0.318034 0.995389
4
 1 0.324102 0.324102 0.993264
4
 1 0.326487 0.326487 0.989696
4
 1 0.324219 0.324219 0.985972
4
 1 0.325167 0.325167 0.982726
4
 1 0.320438 0.320438 0.985756
4
 1 0.329136 0.329136 0.985588
4
 1 0.327892 0.327892 0.98175
4
 1 0.339804 0.339804 0.98608
4
 1 0.336128 0.336128 0.989664
4
 1 0.33665 0.33665 0.987042
4
 1 0.335811 0.335811 0.984825
4
 1 0.329752 0.329752 0.991968
4
 1 0.332178 0.332178 0.988404
4
 1 0.328931 0.328931 0.989739
4
 0.984507 0.28882 0.28882 1
4
 0.98652 0.29342 0.29342 1
4
 0.989503 0.29654 0.29654 1
4
 0.982911 0.28975 0.28975 1
4
 0.987899 0.297495 0.297495 1
4
 0.987082 0.299759 0.299759 1
4
 0.990067 0.302946 0.302946 1
4
 1 0.332041 0.332041 0.963903
4
 1 0.334857 0.334857 0.960001
4
 1 0.327787 0.327787 0.965611
4
 1 0.343512 0.343512 0.957518
4
 1 0.342656 0.342656 0.955367
4
 1 0.347747 0.347747 0.949517
4
 1 0.349434 0.349434 0.951059
4
 1 0.337123 0.337123 0.963069
4
 1 0.339983 0.339983 0.95917
4
 1 0.338674 0.338674 0.964813
4
 1 0.336283 0.336283 0.960905
4
 1 0.330576 0.330576 0.968172
4
 1 0.329182 0.329182 0.966521
4
 1 0.334989 0.334989 0.966558
4
 1 0.32634 0.32634 0.969888
4
 1 0.326693 0.326693 0.97419
4
 1 0.332096 0.332096 0.969925
4
 1 0.323531 0.323531 0.972522
4
 1 0.323102 0.323102 0.97567
4
 1 0.33642 0.33642 0.970717
4
 1 0.33256 0.33256 0.975821
4
 1 0.322167 0.322167 0.970863
4
 1 0.331054 0.331054 0.972566
4
 1 0.327255 0.327255 0.97768
4
 1 0.322496 0.322496 0.980695
4
 1 0.322087 0.322087 0.978326
4
 1 0.332668 0.332668 0.9734
4
 1 0.324068 0.324068 0.981535
4
 0.963961 0.304187 0.304187 1
4
 0.965362 0.307525 0.307525 1
4
 0.96058 0.301091 0.301091 1
4
 0.958889 0.30272 0.30272 1
4
 0.957417 0.299225 0.299225 1
4
 0.964306 0.30005 0.30005 1
4
 0.967472 0.30694 0.30694 1
4
 0.962679 0.300518 0.300518 1
4
 0.960923 0.296996 0.296996 1
4
 0.95824 0.293437 0.293437 1
4
 0.956623 0.293894 0.293894 1
4
 0.956144 0.295616 0.295616 1
4
 0.948182 0.290613 0.290613 1
4
 0.952752 0.297757 0.297757 1
4
 0.95129 0.294319 0.294319 1
4
 0.950358 0.288395 0.288395 1
4
 0.953474 0.292073 0.292073 1
4
 0.949882 0.290085 0.290085 1
4
 0.954461 0.297215 0.297215 1
4
 0.995284 0.273588 0.273588 1
4
 0.997537 0.274764 0.274764 1
4
 0.994044 0.270477 0.270477 1
4
 0.993858 0.318648 0.318648 1
4
 0.997944 0.328565 0.328565 1
4
 0.990715 0.309708 0.309708 1
4
 1 0.361038 0.361038 0.9432
4
 1 0.357688 0.357688 0.94412
4
 1 0.359615 0.359615 0.940695
4
 1 0.355989 0.355989 0.947479
4
 1 0.350982 0.350982 0.946866
4
 1 0.352874 0.352874 0.94343
4
 1 0.354586 0.354586 0.944962
4
 0.930201 0.235647 0.235647 1
4
 0.933805 0.242239 0.242239 1
4
 0.933993 0.239696 0.239696 1
4
 0.931711 0.23489 0.23489 1
4
 0.930741 0.232098 0.232098 1
4
 0.97767 0.262519 0.262519 1
4
 0.974893 0.258695 0.258695 1
4
 0.979845 0.268288 0.268288 1
4
 0.977385 0.26658 0.26658 1
4
 0.974751 0.260688 0.260688 1
4
 0.979702 0.270355 0.270355 1
4
 1 0.30355 0.30355 0.996145
4
 1 0.3032 0.3032 0.994027
4
 1 0.309702 0.309702 0.992042
4
 1 0.306117 0.306117 0.992872
4
 1 0.309345 0.309345 0.989933
4
 1 0.316145 0.316145 0.986831
4
 1 0.315745 0.315745 0.984448
4
 1 0.312423 0.312423 0.986329
4
 1 0.305182 0.305182 0.989209
4
 1 0.308806 0.308806 0.987155
4
 1 0.31895 0.31895 0.982184
4
 1 0.305659 0.305659 0.975221
4
 1 0.301675 0.301675 0.983705
4
 1 0.302132 0.302132 0.978565
4
 1 0.300738 0.300738 0.981578
4
 1 0.304814 0.304814 0.98126
4
 1 0.308364 0.308364 0.978656
4
 1 0.302871 0.302871 0.974961
4
 1 0.295768 0.295768 0.990147
4
 1 0.297545 0.297545 0.986471
4
 1 0.301577 0.301577 0.986152
4
 1 0.301521 0.301521 0.988134
4
 1 0.297996 0.297996 0.981316
4
 1 0.29485 0.29485 0.988006
4
 0.944677 0.258165 0.258165 1
4
 0.951403 0.263939 0.263939 1
4
 0.942496 0.239858 0.239858 1
4
 0.937952 0.23562 0.23562 1
4
 0.935322 0.241462 0.241462 1
4
 0.939064 0.240334 0.240334 1
4
 0.934535 0.236087 0.236087 1
4
 0.938086 0.237477 0.237477 1
4
 1 0.304658 0.304658 0.985678
4
 1 0.308264 0.308264 0.98109
4
 1 0.31897 0.31897 0.976651
4
 1 0.315601 0.315601 0.97599
4
 1 0.315613 0.315613 0.978518
4
 1 0.315195 0.315195 0.981685
4
 1 0.308206 0.308206 0.983062
4
 1 0.308218 0.308218 0.985608
4
 1 0.311866 0.311866 0.981021
1
 1

